NAME : swiss42Preorder.737.tour
COMMENT : Length = 737
COMMENT : Found by LKH [Keld Helsgaun] Thu Apr 23 00:25:19 2020
TYPE : TOUR
DIMENSION : 42
TOUR_SECTION
1
33
35
34
21
36
37
32
18
8
38
16
17
15
20
14
6
27
19
13
12
26
11
9
10
42
24
41
25
22
40
23
39
31
30
29
3
28
4
5
7
2
-1
EOF
